400
504
434
144
646
243
528
272
561
640
450
752
576
425
516
608
245
780
252
495
595
416
574
93
864
629
182
660
330
500
720
551
276
252
500
546
62
490
190
243
405
374
51
246
360
611
592
52
215
128
800
663
168
920
385
988
756
558
144
481
108
44
264
765
560
203
282
684
250
43
256
833
38
280
315
544
468
123
180
672
740
468
44
561
650
429
319
184
35
425
588
124
980
722
405
44
544
867
280
